2465.40 0
0 186 22 30 98 46 149 100 170 164 162 97 151 0
0 58 154 122 82 195 184 42 185 23 181 25 0
0 96 55 106 107 147 161 189 165 134 48 171 172 0
0 51 176 175 21 121 101 43 197 53 99 179 167 0
0 49 24 145 144 143 136 127 132 14 133 128 59 155 173 114 93 0
0 139 27 177 108 129 26 130 9 135 92 163 131 80 0
0 126 17 81 12 10 56 118 16 183 196 66 86 112 0
0 198 160 137 142 91 156 94 140 174 166 79 150 169 168 125 47 0
0 193 120 88 5 29 19 180 84 85 119 77 3 188 0
0 65 123 70 78 69 71 75 72 73 63 74 67 68 0
0 76 110 57 109 60 6 61 190 62 89 113 141 64 0
0 1 191 158 192 115 116 44 187 40 111 4 0
0 50 32 39 31 38 35 34 37 36 41 105 33 0
0 152 54 157 194 199 90 146 148 18 117 0
0 95 52 11 7 102 13 15 124 20 138 103 87 0
0 159 182 104 28 2 8 178 83 153 45 0